100 54495

 262 916
247 534
907 158
250 696
272 794
760 317
450 858
777 907
66 277
488 984
34 141
63 203
907 185
140 894
533 655
412 153
348 441
900 616
22 84
664 883
964 804
561 506
937 968
53 418
419 985
261 668
731 635
982 166
257 882
655 428
199 163
566 13
464 560
973 528
609 720
350 891
115 80
152 732
226 188
251 859
851 820
562 541
524 711
115 315
861 472
723 822
68 460
708 358
544 495
82 829
459 336
485 174
166 713
946 826
850 101
670 240
463 142
412 348
651 451
546 749
63 652
513 621
807 353
460 842
52 472
787 980
202 635
259 127
165 677
331 326
757 687
520 70
205 175
878 856
880 228
871 838
239 280
452 643
985 695
773 513
28 306
66 213
464 34
910 304
539 654
498 939
106 872
657 767
823 789
381 665
776 261
965 908
204 671
524 561
288 111
793 448
578 461
635 865
798 547
396 381
